proyfinal/src/viki/013/experimentInOfficeAgust.take6.output/f1a0cb57-f742-4f33-9f7f-e92e31a75cd0.als.out
Reading from standard input... Use '--help' for help.
============================[ Problem Statistics ]=============================
|                                                                             |
|  Number of variables:         87638                                         |
|  Number of clauses:          161767                                         |
|  Parse time:                   0.04 s                                       |
|                                                                             |
============================[ Search Statistics ]==============================
| Conflicts |          ORIGINAL         |          LEARNT          | Progress |
|           |    Vars  Clauses Literals |    Limit  Clauses Lit/Cl |          |
===============================================================================
|       100 |   63172   108086   270271 |    39631       99     42 | 27.917 % |
|       250 |   63154   107908   269855 |    43594      248     59 | 27.938 % |
|       475 |   63154   107908   269855 |    47954      473    104 | 27.938 % |
|       812 |   63154   107908   269855 |    52749      810     85 | 27.938 % |
|      1318 |   63154   107908   269855 |    58024     1316     79 | 27.938 % |
|      2077 |   63134   107788   269589 |    63826     2070     77 | 27.960 % |
|      3216 |   63134   107788   269589 |    70209     3209     89 | 27.960 % |
|      4924 |   63134   107788   269589 |    77230     4917     99 | 27.960 % |
|      7486 |   63097   107712   269410 |    84953     7477    106 | 28.003 % |
|     11330 |   63012   107263   268415 |    93449    11063    108 | 28.100 % |
===============================================================================
restarts              : 48
conflicts             : 11391          (5764 /sec)
decisions             : 40419          (0.00 % random) (20453 /sec)
propagations          : 18314087       (9267526 /sec)
conflict literals     : 1249691        (50.24 % deleted)
Memory used           : 26.20 MB
CPU time              : 1.97616 s

UNSATISFIABLE
